33D32945 STP File, STP Format Version 1.0

SECTION Comments
Name "edge_n13_d3_s12"
Problem "Euclidean Steiner Tree Problem"
Remark "Generated with STPGenerator. 3 dimensions."
END

SECTION Graph
Nodes 13
END

SECTION Coordinates
DDD 0 0.7856002826 0.7856002826 0.7856002826
DDD 1 0.4401777473 0.4401777473 0.4401777473
DDD 2 0.1151188249 0.1151188249 0.1151188249
DDD 3 0.8235438768 0.8235438768 0.8235438768
DDD 4 0.6883942167 0.6883942167 0.6883942167
DDD 5 0.1299254853 0.1299254853 0.1299254853
DDD 6 0.3111650372 0.3111650372 0.3111650372
DDD 7 0.5165184259 0.5165184259 0.5165184259
DDD 8 0.6420080073 0.6420080073 0.6420080073
DDD 9 0.4910349215 0.4910349215 0.4910349215
DDD 10 0.0853253426 0.0853253426 0.0853253426
DDD 11 0.4141814399 0.4141814399 0.4141814399
DDD 12 0.2860070939 0.2860070939 0.2860070939
END
